  Job Started  at 17:13.02  5th January    2024

  Number of CPUs =     1

  Host name      = login01

  Total number of configurations input =      1

*  Input for Configuration =   1                                               *

  Formula = BaSnO3

  Number of irreducible atoms/shells =      10

  Total number atoms/shells =      10

  Dimensionality = 3               :  Bulk

  Cartesian lattice vectors (Angstroms) :

        4.123773    0.000000    0.000000
        0.000000    4.123773    0.000000
        0.000000    0.000000    4.123773

  Cell parameters (Angstroms/Degrees):

  a =       4.1238    alpha =  90.0000
  b =       4.1238    beta  =  90.0000
  c =       4.1238    gamma =  90.0000

  Initial cell volume =          70.126837 Angs**3

  Temperature of configuration =  0.000     K

  Pressure of configuration =         0.000 GPa

  Fractional coordinates of asymmetric unit :

   No.  Atomic       x           y          z         Charge      Occupancy
        Label      (Frac)      (Frac)     (Frac)        (e)         (Frac)
      1 Ba    c    0.500000    0.500000    0.500000    -7.20300    1.000000
      2 Sn    c    0.000000 *  0.000000 *  0.000000 *   2.42000    1.000000
      3 O     c    0.500000 *  0.000000 *  0.000000 *   0.38900    1.000000
      4 O     c    0.000000 *  0.500000 *  0.000000 *   0.38900    1.000000
      5 O     c    0.000000 *  0.000000 *  0.500000 *   0.38900    1.000000
      6 Ba    s    0.500000 *  0.500000 *  0.500000 *   9.20300    1.000000
      7 Sn    s    0.000000 *  0.000000 *  0.000000 *   1.58000    1.000000
      8 O     s    0.500000 *  0.000000 *  0.000000 *  -2.38900    1.000000
      9 O     s    0.000000 *  0.500000 *  0.000000 *  -2.38900    1.000000
     10 O     s    0.000000 *  0.000000 *  0.500000 *  -2.38900    1.000000

*  General input information                                                   *

  Species output for all configurations :

  Species    Type    Atomic    Atomic    Charge       Radii (Angs)     Library
                     Number     Mass       (e)     Cova   Ionic  VDW   Symbol
    Ba       Core       56     137.33  -7.203000   1.340  0.000  2.000
    Ba       Shell      56       0.00   9.203000   1.340  0.000  2.000
    Sn       Core       50     118.71   2.420000   1.460  0.000  2.180
    Sn       Shell      50       0.00   1.580000   1.460  0.000  2.180
    O        Core        8      16.00   0.389000   0.730  0.000  1.360
    O        Shell       8       0.00  -2.389000   0.730  0.000  1.360

  Lattice summation method               =    Ewald          (3-D)
                                         =    Parry          (2-D)
                                         =    Saunders et al (1-D)
  Accuracy factor for lattice sums       =   18.000

  Time limit = Infinity

  Maximum range for interatomic potentials =    100000.000000 Angstroms

  General interatomic potentials :

Atom  Types   Potential      Parameter       Value         Units   Cutoffs(Ang)
  1     2                                                            Min /  Max
O    s O    s Buckingham    Buckingham A     9547.9600    eV        0.000 12.000
                            Buckingham rho  0.21920000    Ang
                            Buckingham C     32.000000    eV*Ang^6
O    s Ba   s Buckingham    Buckingham A     873.82901    eV        0.000 12.000
                            Buckingham rho  0.38630000    Ang
                            Buckingham C     0.0000000    eV*Ang^6
O    s Sn   s Buckingham    Buckingham A     1056.8000    eV        0.000 12.000
                            Buckingham rho  0.36830000    Ang
                            Buckingham C     0.0000000    eV*Ang^6
Ba   c Ba   s Spring (c-s)  Spring k 2       459.20000    eV*Ang^-2 0.000  0.800
                            Spring k 4       0.0000000    eV*Ang^-4
Sn   c Sn   s Spring (c-s)  Spring k 2       2037.8000    eV*Ang^-2 0.000  0.800
                            Spring k 4       0.0000000    eV*Ang^-4
O    c O    s Spring (c-s)  Spring k 2       23.090000    eV*Ang^-2 0.000  0.800
                            Spring k 4       0.0000000    eV*Ang^-4

*  Output for configuration   1                                                *

  Components of energy :

  Interatomic potentials     =          28.56792554 eV
  Monopole - monopole (real) =         -40.61315151 eV
  Monopole - monopole (recip)=        -132.26983619 eV
  Monopole - monopole (total)=        -172.88298770 eV
  Total lattice energy       =        -144.31506216 eV
  Total lattice energy       =          -13924.1974 kJ/(mole unit cells)

  Number of variables =       33

  Maximum number of calculations  =          1000
  Maximum Hessian update interval =            10
  Maximum step size               =   1.000000000
  Maximum parameter tolerance     =   0.000000010
  Maximum function  tolerance     =   0.000000000
  Maximum gradient  tolerance     =   0.000001000
  Maximum gradient  component     =   0.010000000

  Symmetry not applied to optimisation

  Cell parameters to be optimised using strains

  Newton-Raphson optimiser to be used

  BFGS hessian update to be used

  Lower half triangular hessian to be used

  Dumpfile to be written after every cycle

  Start of bulk optimisation :

  ** Hessian calculated **

  XYZ File written as 1.xyz

  **** Optimisation achieved ****

  Final energy =    -144.31506216 eV
  Final Gnorm  =       0.00000042

  Components of energy :

  Interatomic potentials     =          28.56793457 eV
  Monopole - monopole (real) =         -40.61315364 eV
  Monopole - monopole (recip)=        -132.26984310 eV
  Monopole - monopole (total)=        -172.88299673 eV
  Total lattice energy       =        -144.31506216 eV
  Total lattice energy       =          -13924.1974 kJ/(mole unit cells)

  Final fractional coordinates of atoms :

   No.  Atomic        x           y          z          Radius
        Label       (Frac)      (Frac)     (Frac)       (Angs)
     1  Ba    c     0.500000    0.500000    0.500000    0.000000
     2  Sn    c     1.000000    0.000000    0.000000    0.000000
     3  O     c     0.500000    0.000000    0.000000    0.000000
     4  O     c     1.000000    0.500000    0.000000    0.000000
     5  O     c     1.000000    0.000000    0.500000    0.000000
     6  Ba    s     0.500000    0.500000    0.500000    0.000000
     7  Sn    s     1.000000    0.000000    0.000000    0.000000
     8  O     s     0.500000    0.000000    0.000000    0.000000
     9  O     s     1.000000    0.500000    0.000000    0.000000
    10  O     s     1.000000    0.000000    0.500000    0.000000

  Final Cartesian lattice vectors (Angstroms) :

        4.123773    0.000000    0.000000
        0.000000    4.123773    0.000000
        0.000000    0.000000    4.123773

  Final cell parameters and derivatives :

       a            4.123773 Angstrom     dE/de1(xx)     0.000008 eV/strain
       b            4.123773 Angstrom     dE/de2(yy)     0.000008 eV/strain
       c            4.123773 Angstrom     dE/de3(zz)     0.000008 eV/strain
       alpha       90.000000 Degrees      dE/de4(yz)     0.000000 eV/strain
       beta        90.000000 Degrees      dE/de5(xz)    -0.000000 eV/strain
       gamma       90.000000 Degrees      dE/de6(xy)    -0.000000 eV/strain

  Primitive cell volume =            70.126826 Angs**3

  Density of cell =      7.199503 g/cm**3

  Non-primitive cell volume =            70.126826 Angs**3

  Final internal derivatives :

   No.  Atomic          a             b             c           Radius
        Label          (eV)          (eV)          (eV)        (eV/Angs)
      1 Ba    c       0.000000      0.000000      0.000000      0.000000
      2 Sn    c      -0.000000     -0.000000     -0.000000      0.000000
      3 O     c       0.000000      0.000000     -0.000000      0.000000
      4 O     c       0.000000     -0.000000     -0.000000      0.000000
      5 O     c       0.000000     -0.000000     -0.000000      0.000000
      6 Ba    s      -0.000000     -0.000000      0.000000      0.000000
      7 Sn    s      -0.000000     -0.000000     -0.000000      0.000000
      8 O     s       0.000000      0.000000     -0.000000      0.000000
      9 O     s       0.000000      0.000000     -0.000000      0.000000
     10 O     s       0.000000     -0.000000      0.000000      0.000000
  Maximum abs         0.000000      0.000000      0.000000      0.000000

  Born effective charge tensors :

  Atom             x           y             z
    1 Ba    x       2.6343      0.0000      0.0000
            y       0.0000      2.6343      0.0000
            z       0.0000      0.0000      2.6343
    2 Sn    x       3.6962      0.0000      0.0000
            y       0.0000      3.6962      0.0000
            z       0.0000     -0.0000      3.6962
    3 O     x      -2.2262     -0.0000     -0.0000
            y      -0.0000     -2.0522      0.0000
            z      -0.0000      0.0000     -2.0522
    4 O     x      -2.0522     -0.0000     -0.0000
            y      -0.0000     -2.2262      0.0000
            z      -0.0000      0.0000     -2.0522
    5 O     x      -2.0522     -0.0000      0.0000
            y      -0.0000     -2.0522     -0.0000
            z       0.0000     -0.0000     -2.2262

  Elastic Constant Matrix: (Units=GPa)

  Indices      1         2         3         4         5         6
       1    280.3259  137.6414  137.6414   -0.0000   -0.0000   -0.0000
       2    137.6414  280.3259  137.6414    0.0000    0.0000   -0.0000
       3    137.6414  137.6414  280.3259    0.0000    0.0000   -0.0000
       4     -0.0000    0.0000    0.0000  137.6414   -0.0000    0.0000
       5     -0.0000    0.0000    0.0000   -0.0000  137.6414   -0.0000
       6     -0.0000   -0.0000   -0.0000    0.0000   -0.0000  137.6414

  Elastic Constant Tensor Eigenvalues: (Units=GPa)

     1 =   137.6414     2 =   137.6414     3 =   137.6414
     4 =   142.6845     5 =   142.6845     6 =   555.6086

  Elastic Compliance Matrix: (Units=1/GPa)

  Indices      1         2         3         4         5         6
       1    0.005272 -0.001736 -0.001736  0.000000  0.000000  0.000000
       2   -0.001736  0.005272 -0.001736 -0.000000  0.000000  0.000000
       3   -0.001736 -0.001736  0.005272 -0.000000 -0.000000 -0.000000
       4    0.000000 -0.000000 -0.000000  0.007265  0.000000 -0.000000
       5    0.000000  0.000000 -0.000000  0.000000  0.007265  0.000000
       6    0.000000  0.000000 -0.000000 -0.000000  0.000000  0.007265

  Mechanical properties :

  Convention :                    Reuss         Voigt         Hill
  Bulk  Modulus (GPa)     =     185.20287     185.20287     185.20287
  Shear Modulus (GPa)     =     100.34187     111.12173     105.73180
  Velocity S-wave (km/s)  =       3.73327       3.92869       3.83223
  Velocity P-wave (km/s)  =       6.65639       6.80470       6.73095
  Compressibility (1/GPa) =    0.00539948
  Stress axis :                     x             y             z
  Youngs Moduli (GPa)     =     189.67214     189.67214     189.67214
  Poissons Ratio (x)      =                     0.32931       0.32931
[...]
   285  Sn    s     2.319548   -0.000000    0.000000    1.580000
   286  Sn    s    -2.319548   -0.000000    0.000000    1.580000
   287  O     s     1.931942   -1.936588    0.000000   -2.389000
   288  O     s     1.931942    0.000000   -1.936588   -2.389000
   289  O     s     1.931942   -0.000000    1.936588   -2.389000
   290  O     s     1.931942    1.936588    0.000000   -2.389000
   291  Ba    s     0.000000   -2.126616   -2.126616    9.203000
   292  Ba    s     0.000000   -2.126616    2.126616    9.203000
   293  Ba    s     0.000000    2.126616   -2.126616    9.203000
   294  Ba    s     0.000000    2.126616    2.126616    9.203000
   295  O     s    -1.931942   -1.936588    0.000000   -2.389000
   296  O     s    -1.931942   -0.000000   -1.936588   -2.389000
   297  O     s    -1.931942    0.000000    1.936588   -2.389000
   298  O     s    -1.931942    1.936588    0.000000   -2.389000
   299  O     s    -0.000000   -4.116854    0.000000   -2.389000
   300  O     s     0.000000    0.000000    4.116854   -2.389000
   301  O     s     0.000000    0.000000   -4.116854   -2.389000
   302  O     s     4.186453   -0.000000    0.000000   -2.389000
   303  O     s    -0.000000    4.116854    0.000000   -2.389000
   304  O     s    -4.186453   -0.000000    0.000000   -2.389000
   305  Sn    s     2.047904    0.000000    4.110237    1.580000
   306  Sn    s     2.047904    0.000000   -4.110237    1.580000
   307  Sn    s     2.047904    4.110237    0.000000    1.580000
   308  Sn    s     2.047904   -4.110237    0.000000    1.580000
   309  Sn    s    -2.047904    0.000000    4.110237    1.580000
   310  Sn    s    -2.047904    0.000000   -4.110237    1.580000
   311  Sn    s    -2.047904    4.110237    0.000000    1.580000
   312  Sn    s    -2.047904   -4.110237    0.000000    1.580000
   313  O     s     2.054202   -4.096802   -2.048130   -2.389000
   314  O     s     2.054202   -4.096802    2.048130   -2.389000
   315  O     s     2.054202   -2.048130    4.096802   -2.389000
   316  O     s     2.054202   -2.048130   -4.096802   -2.389000
   317  O     s     2.054202    2.048130    4.096802   -2.389000
   318  O     s     2.054202    2.048130   -4.096802   -2.389000
   319  O     s     2.054202    4.096802   -2.048130   -2.389000
   320  O     s     2.054202    4.096802    2.048130   -2.389000
   321  Ba    s    -4.186687   -2.131494   -2.131494    9.203000
   322  Ba    s    -4.186687   -2.131494    2.131494    9.203000
   323  Ba    s    -4.186687    2.131494   -2.131494    9.203000
   324  Ba    s    -4.186687    2.131494    2.131494    9.203000
   325  O     s    -2.054202   -4.096802   -2.048130   -2.389000
   326  O     s    -2.054202   -4.096802    2.048130   -2.389000
   327  O     s    -2.054202   -2.048130    4.096802   -2.389000
   328  O     s    -2.054202   -2.048130   -4.096802   -2.389000
   329  Ba    s     4.186687   -2.131494   -2.131494    9.203000
   330  Ba    s     4.186687   -2.131494    2.131494    9.203000
   331  Ba    s     4.186687    2.131494   -2.131494    9.203000
   332  Ba    s     4.186687    2.131494    2.131494    9.203000
   333  O     s    -2.054202    2.048130    4.096802   -2.389000
   334  O     s    -2.054202    2.048130   -4.096802   -2.389000
   335  O     s    -2.054202    4.096802   -2.048130   -2.389000
   336  O     s    -2.054202    4.096802    2.048130   -2.389000
   337  O     s    -0.000000   -4.110354    4.110354   -2.389000
   338  O     s     0.000000   -4.110354   -4.110354   -2.389000
   339  O     s     4.092351   -4.043022    0.000000   -2.389000
   340  O     s     4.092351   -0.000000    4.043022   -2.389000
   341  O     s     4.092351    0.000000   -4.043022   -2.389000
   342  O     s     0.000000    4.110354    4.110354   -2.389000
   343  O     s     0.000000    4.110354   -4.110354   -2.389000
   344  O     s     4.092351    4.043022    0.000000   -2.389000
[...]
   554  Ba    s     4.132034    6.207709   -6.207709    9.203000
   555  Ba    s     4.132034   -6.207709    6.207709    9.203000
   556  Ba    s     4.132034   -6.207709   -6.207709    9.203000
   557  Ba    s    -4.132034    6.207709    6.207709    9.203000
   558  Ba    s    -4.132034    6.207709   -6.207709    9.203000
   559  Ba    s    -4.132034   -6.207709    6.207709    9.203000
   560  Ba    s    -4.132034   -6.207709   -6.207709    9.203000
   561  O     s    -6.175532   -6.175748    4.120074   -2.389000
   562  O     s    -6.175532   -6.175748   -4.120074   -2.389000
   563  O     s    -6.175532   -4.120074    6.175748   -2.389000
   564  O     s    -6.175532   -4.120074   -6.175748   -2.389000
   565  O     s    -6.175532    6.175748    4.120074   -2.389000
   566  O     s    -6.175532    6.175748   -4.120074   -2.389000
   567  O     s    -6.175532    4.120074    6.175748   -2.389000
   568  O     s    -6.175532    4.120074   -6.175748   -2.389000

  Final derivatives for region 1 :

   No.  Atomic          x             y             z            Radius
        Label       (eV/Angs)     (eV/Angs)     (eV/Angs)       (eV/Angs)
     1  Sn    c      -0.000000     -0.000000      0.000000      0.000000
     2  Sn    c       0.000000      0.000000      0.000000      0.000000
     3  O     c       0.000000     -0.000000     -0.000000      0.000000
     4  O     c       0.000000      0.000000     -0.000000      0.000000
     5  O     c       0.000000      0.000000      0.000000      0.000000
     6  O     c       0.000000      0.000000      0.000000      0.000000
     7  Ba    c      -0.000000     -0.000000     -0.000000      0.000000
     8  Ba    c      -0.000000     -0.000000      0.000000      0.000000
     9  Ba    c       0.000000      0.000000     -0.000000      0.000000
    10  Ba    c       0.000000      0.000000      0.000000      0.000000
    11  O     c      -0.000000     -0.000000      0.000000      0.000000
    12  O     c      -0.000000      0.000000     -0.000000      0.000000
    13  O     c      -0.000000      0.000000      0.000000      0.000000
    14  O     c      -0.000000      0.000000      0.000000      0.000000
    15  O     c       0.000000     -0.000000      0.000000      0.000000
    16  O     c      -0.000000      0.000000      0.000000      0.000000
    17  O     c       0.000000      0.000000     -0.000000      0.000000
    18  O     c      -0.000000     -0.000000     -0.000000      0.000000
    19  O     c      -0.000000      0.000000     -0.000000      0.000000
    20  O     c       0.000000     -0.000000      0.000000      0.000000
    21  Sn    c      -0.000000      0.000000      0.000000      0.000000
    22  Sn    c      -0.000000      0.000000     -0.000000      0.000000
    23  Sn    c      -0.000000      0.000000      0.000000      0.000000
    24  Sn    c      -0.000000     -0.000000      0.000000      0.000000
    25  Sn    c       0.000000     -0.000000      0.000000      0.000000
    26  Sn    c       0.000000      0.000000     -0.000000      0.000000
    27  Sn    c       0.000000      0.000000      0.000000      0.000000
    28  Sn    c       0.000000     -0.000000     -0.000000      0.000000
    29  O     c      -0.000000     -0.000000     -0.000000      0.000000
    30  O     c      -0.000000     -0.000000      0.000000      0.000000
    31  O     c      -0.000000     -0.000000      0.000000      0.000000
    32  O     c      -0.000000     -0.000000     -0.000000      0.000000
    33  O     c      -0.000000      0.000000      0.000000      0.000000
    34  O     c      -0.000000      0.000000     -0.000000      0.000000
    35  O     c      -0.000000      0.000000     -0.000000      0.000000
    36  O     c      -0.000000      0.000000      0.000000      0.000000
    37  Ba    c      -0.000000     -0.000000     -0.000000      0.000000
    38  Ba    c      -0.000000     -0.000000      0.000000      0.000000
    39  Ba    c      -0.000000      0.000000     -0.000000      0.000000
    40  Ba    c      -0.000000      0.000000      0.000000      0.000000
    41  O     c       0.000000     -0.000000     -0.000000      0.000000
    42  O     c       0.000000     -0.000000      0.000000      0.000000
    43  O     c       0.000000     -0.000000      0.000000      0.000000
    44  O     c       0.000000     -0.000000     -0.000000      0.000000
    45  Ba    c       0.000000     -0.000000     -0.000000      0.000000
    46  Ba    c       0.000000     -0.000000      0.000000      0.000000
    47  Ba    c       0.000000      0.000000     -0.000000      0.000000
    48  Ba    c       0.000000      0.000000      0.000000      0.000000
    49  O     c       0.000000      0.000000      0.000000      0.000000
    50  O     c       0.000000      0.000000     -0.000000      0.000000
    51  O     c       0.000000      0.000000     -0.000000      0.000000
    52  O     c       0.000000      0.000000      0.000000      0.000000
    53  O     c      -0.000000      0.000000     -0.000000      0.000000
    54  O     c       0.000000      0.000000      0.000000      0.000000
    55  O     c       0.000000     -0.000000      0.000000      0.000000
    56  O     c       0.000000     -0.000000      0.000000      0.000000
    57  O     c       0.000000      0.000000     -0.000000      0.000000
    58  O     c      -0.000000     -0.000000     -0.000000      0.000000
    59  O     c       0.000000     -0.000000      0.000000      0.000000
    60  O     c       0.000000      0.000000      0.000000      0.000000
[...]
   270  Ba    c       0.000000      0.000000     -0.000000      0.000000
   271  Ba    c       0.000000     -0.000000      0.000000      0.000000
   272  Ba    c       0.000000     -0.000000     -0.000000      0.000000
   273  Ba    c      -0.000000      0.000000      0.000000      0.000000
   274  Ba    c      -0.000000      0.000000     -0.000000      0.000000
   275  Ba    c      -0.000000     -0.000000      0.000000      0.000000
   276  Ba    c      -0.000000     -0.000000     -0.000000      0.000000
   277  O     c      -0.000000      0.000000     -0.000000      0.000000
   278  O     c      -0.000000      0.000000      0.000000      0.000000
   279  O     c      -0.000000      0.000000     -0.000000      0.000000
   280  O     c      -0.000000      0.000000      0.000000      0.000000
   281  O     c      -0.000000     -0.000000     -0.000000      0.000000
   282  O     c      -0.000000     -0.000000      0.000000      0.000000
   283  O     c      -0.000000     -0.000000     -0.000000      0.000000
   284  O     c      -0.000000     -0.000000      0.000000      0.000000
   285  Sn    s      -0.000000      0.000000      0.000000      0.000000
   286  Sn    s       0.000000     -0.000000     -0.000000      0.000000
   287  O     s       0.000000      0.000000     -0.000000      0.000000
   288  O     s       0.000000     -0.000000      0.000000      0.000000
   289  O     s       0.000000      0.000000     -0.000000      0.000000
   290  O     s       0.000000     -0.000000      0.000000      0.000000
   291  Ba    s       0.000000      0.000001      0.000001      0.000000
   292  Ba    s      -0.000000      0.000001     -0.000001      0.000000
   293  Ba    s       0.000000     -0.000001      0.000001      0.000000
   294  Ba    s       0.000000     -0.000001     -0.000001      0.000000
   295  O     s      -0.000000      0.000000     -0.000000      0.000000
   296  O     s      -0.000000     -0.000000      0.000000      0.000000
   297  O     s      -0.000000     -0.000000     -0.000000      0.000000
   298  O     s      -0.000000     -0.000000      0.000000      0.000000
   299  O     s       0.000000      0.000000      0.000000      0.000000
   300  O     s       0.000000     -0.000000     -0.000000      0.000000
   301  O     s       0.000000     -0.000000      0.000000      0.000000
   302  O     s       0.000000     -0.000000      0.000000      0.000000
   303  O     s      -0.000000     -0.000000     -0.000000      0.000000
   304  O     s      -0.000000      0.000000     -0.000000      0.000000
   305  Sn    s       0.000000     -0.000000     -0.000000      0.000000
   306  Sn    s       0.000000     -0.000000      0.000000      0.000000
   307  Sn    s       0.000000     -0.000000     -0.000000      0.000000
   308  Sn    s       0.000000      0.000000      0.000000      0.000000
   309  Sn    s      -0.000000      0.000000     -0.000000      0.000000
   310  Sn    s      -0.000000     -0.000000      0.000000      0.000000
   311  Sn    s      -0.000000     -0.000000     -0.000000      0.000000
   312  Sn    s      -0.000000      0.000000      0.000000      0.000000
   313  O     s       0.000000      0.000000      0.000000      0.000000
   314  O     s       0.000000      0.000000     -0.000000      0.000000
   315  O     s       0.000000      0.000000     -0.000000      0.000000
   316  O     s       0.000000      0.000000      0.000000      0.000000
   317  O     s       0.000000     -0.000000     -0.000000      0.000000
   318  O     s       0.000000     -0.000000      0.000000      0.000000
   319  O     s       0.000000     -0.000000      0.000000      0.000000
   320  O     s       0.000000     -0.000000     -0.000000      0.000000
   321  Ba    s       0.000000      0.000000      0.000000      0.000000
   322  Ba    s       0.000000      0.000000     -0.000000      0.000000
   323  Ba    s       0.000000     -0.000000      0.000000      0.000000
   324  Ba    s       0.000000     -0.000000     -0.000000      0.000000
   325  O     s      -0.000000      0.000000      0.000000      0.000000
   326  O     s      -0.000000      0.000000     -0.000000      0.000000
   327  O     s      -0.000000      0.000000     -0.000000      0.000000
   328  O     s      -0.000000      0.000000      0.000000      0.000000
   329  Ba    s      -0.000000      0.000000      0.000000      0.000000
   330  Ba    s      -0.000000      0.000000     -0.000000      0.000000
   331  Ba    s      -0.000000     -0.000000      0.000000      0.000000
   332  Ba    s      -0.000000     -0.000000     -0.000000      0.000000
   333  O     s      -0.000000     -0.000000     -0.000000      0.000000
   334  O     s      -0.000000     -0.000000      0.000000      0.000000
   335  O     s      -0.000000     -0.000000      0.000000      0.000000
   336  O     s      -0.000000     -0.000000     -0.000000      0.000000
   337  O     s      -0.000000     -0.000000      0.000000      0.000000
   338  O     s       0.000000     -0.000000     -0.000000      0.000000
   339  O     s      -0.000000      0.000000      0.000000      0.000000
   340  O     s      -0.000000      0.000000     -0.000000      0.000000
   341  O     s      -0.000000     -0.000000      0.000000      0.000000
   342  O     s      -0.000000      0.000000      0.000000      0.000000
   343  O     s       0.000000      0.000000     -0.000000      0.000000
   344  O     s      -0.000000     -0.000000      0.000000      0.000000
[...]
   554  Ba    s      -0.000000     -0.000000      0.000000      0.000000
   555  Ba    s      -0.000000      0.000000     -0.000000      0.000000
   556  Ba    s      -0.000000      0.000000      0.000000      0.000000
   557  Ba    s       0.000000     -0.000000     -0.000000      0.000000
   558  Ba    s       0.000000     -0.000000      0.000000      0.000000
   559  Ba    s       0.000000      0.000000     -0.000000      0.000000
   560  Ba    s       0.000000      0.000000      0.000000      0.000000
   561  O     s      -0.000000     -0.000000      0.000000      0.000000
   562  O     s      -0.000000     -0.000000     -0.000000      0.000000
   563  O     s      -0.000000     -0.000000      0.000000      0.000000
   564  O     s      -0.000000     -0.000000     -0.000000      0.000000
   565  O     s      -0.000000      0.000000      0.000000      0.000000
   566  O     s      -0.000000      0.000000     -0.000000      0.000000
   567  O     s      -0.000000      0.000000      0.000000      0.000000
   568  O     s      -0.000000      0.000000     -0.000000      0.000000

  Time to end of optimisation  =       91.2503 seconds

  Timing analysis for GULP :

  Task / Subroutine                                          Time (Seconds)
  Calculation of reciprocal space energy and derivatives          0.0072
  Calculation of real space energy and derivatives                0.0217
  Calculation for region 1 energy and derivatives (2-b)          17.4894
  Calculation for region 2a energy                               64.2900
  Calculation for region 2b energy                                0.0023
  Calculation and manipulation of Hessian matrix                  0.0121
  Calculation of matrix inversion                                 1.7776

  Dump file written as 1.res

  Job Finished at 17:14.35  5th January    2024